projet_m2_wvcp/original_wvcp_dzn/p09.clq.dzn
cliques=[{2,1,0,3,4},{2,1,0,3,4},{22,2,17,12,7},{2,1,0,3,4},{2,1,0,3,4},{15,10,0,20,5},{6,16,1,21,11},{22,2,17,12,7},{13,18,3,23,8},{24,9,4,14,19},{13,10,12,14,11},{6,16,1,21,11},{22,2,17,12,7},{13,18,3,23,8},{24,9,4,14,19},{18,15,16,17,19},{18,15,16,17,19},{22,2,17,12,7},{18,15,16,17,19},{18,15,16,17,19},{22,24,21,23,20},{22,24,21,23,20},{22,2,17,12,7},{22,24,21,23,20},{22,24,21,23,20}];
nr_cliques=25;
