projet_m2_wvcp/original_wvcp_dzn/p09.dzn
name="p09";
nr_vertices=25;
nr_edges=100;
neighborhoods=[{1,2,3,4,5,10,15,20},{0,2,3,4,6,11,16,21},{0,1,3,4,7,12,17,22},{0,1,2,4,8,13,18,23},{0,1,2,3,9,14,19,24},{0,6,7,8,9,10,15,20},{1,5,7,8,9,11,16,21},{2,5,6,8,9,12,17,22},{3,5,6,7,9,13,18,23},{4,5,6,7,8,14,19,24},{0,5,11,12,13,14,15,20},{1,6,10,12,13,14,16,21},{2,7,10,11,13,14,17,22},{3,8,10,11,12,14,18,23},{4,9,10,11,12,13,19,24},{0,5,10,16,17,18,19,20},{1,6,11,15,17,18,19,21},{2,7,12,15,16,18,19,22},{3,8,13,15,16,17,19,23},{4,9,14,15,16,17,18,24},{0,5,10,15,21,22,23,24},{1,6,11,16,20,22,23,24},{2,7,12,17,20,21,23,24},{3,8,13,18,20,21,22,24},{4,9,14,19,20,21,22,23}];
weights=[437,538,911,410,336,68,847,194,94,539,554,107,254,865,218,765,576,537,860,129,184,319,954,258,903];
